10
[[-1, 38182, -1848051734, 31174, 1636594105, 1490671816, 43172, 21876, 44444, 0],[38182, -1, 1345398050, 0, -1661879449, 1497020129, 0, 950860520, 0, 25569],[-1848051734, 1345398050, -1, 2060175121, 43724, 33194, 733161466, 20869, 25403, 0],[31174, 0, 2060175121, -1, -1780811694, -1246765270, 2120678375, 18692, 584366420, 0],[1636594105, -1661879449, 43724, -1780811694, -1, 936226401, 43352, 43928, 45818, 0],[1490671816, 1497020129, 33194, -1246765270, 936226401, -1, 0, 0, 23846, 1860344604],[43172, 0, 733161466, 2120678375, 43352, 0, -1, 10818, 45876, 19343],[21876, 950860520, 20869, 18692, 43928, 0, 10818, -1, 0, 27432],[44444, 0, 25403, 584366420, 45818, 23846, 45876, 0, -1, 46023],[0, 25569, 0, 0, 0, 1860344604, 19343, 27432, 46023, -1]]